# avogadro generated ORCA file
# C7H14 | Frequencies | revPBE/def2-TZVP
# 
! Opt Freq revPBE def2-TZVP 

%maxcore 16384

%pal
   nprocs 1
end

* xyz 0 1
   C     -3.150658    3.072574   -0.228097
   C     -3.263926    1.547273   -0.150035
   H     -3.479139    1.162614   -1.155751
   H     -0.741851    1.066066   -1.326226
   C     -1.852075    3.616550    0.353766
   C     -2.011561    0.864544    0.414066
   H     -3.230261    3.381006   -1.278060
   H     -4.002570    3.531226    0.287630
   C     -0.632541    2.919431   -0.240391
   H     -1.785685    4.695373    0.171853
   H     -1.855374    3.486002    1.443061
   C     -0.750815    1.393152   -0.278059
   H     -0.467272    3.285330   -1.261471
   H      0.258468    3.206434    0.330630
   C     -2.113546   -0.653653    0.277373
   H     -4.132233    1.279275    0.464881
   H      0.140895    0.950317    0.182865
   H     -1.942435    1.092350    1.486027
   H     -1.237930   -1.142491    0.716997
   H     -3.002248   -1.030999    0.793825
   H     -2.178154   -0.957188   -0.772849
*


