# avogadro generated ORCA file
# C7H8O | Frequencies | revPBE/def2-TZVP
# 
! Opt Freq revPBE def2-TZVP 

%maxcore 16384

%pal
   nprocs 1
end

* xyz 0 1
   C     -2.404980    0.574912   -0.000109
   C     -2.326273   -0.818739   -0.000127
   C      0.082689   -3.532877   -0.000256
   H      0.913833    1.292863   -0.000225
   C     -1.238297    1.335117   -0.000144
   C     -1.086225   -1.463181   -0.000181
   H     -0.142813   -4.603777   -0.000251
   H     -3.375573    1.063240   -0.000067
   C      0.080296   -0.696611   -0.000217
   H     -3.238904   -1.409551   -0.000099
   O     -1.152832   -2.829459   -0.000192
   H     -1.295460    2.420391   -0.000130
   H      0.661548   -3.314856   -0.903949
   H      0.661638   -3.314867    0.903382
   C      0.002561    0.700036   -0.000198
   H      1.064499   -1.152181   -0.000259
*


